benchmarks/VRPTW/TSPTW/solution/n60w20.003.txt.solution
1 19 57 32 13 15 2 35 20 38 23 30 34 21 50 46 16 49 53 41 39 60 8 6 14 47 45 12 27 9 26 18 42 17 36 44 24 25 48 56 10 4 28 52 7 51 43 40 22 31 33 55 29 58 11 37 59 3 5 61 54 
533
